(set-logic QF_BV)
(declare-fun _substvar_210_ () Bool)
(declare-fun _substvar_79_ () (_ BitVec 63))
(declare-fun _substvar_123_ () (_ BitVec 63))
(declare-fun _substvar_120_ () (_ BitVec 63))
(declare-fun _substvar_108_ () (_ BitVec 63))
(declare-fun _substvar_113_ () (_ BitVec 63))
(declare-fun _substvar_126_ () (_ BitVec 63))
(assert (and true true true true true true true true true true true true true true true true true true true true true true true true true true true true true true true true true true true true true true true true true true true true true true true true true true true true true true true true true true (= _substvar_120_ (_ bv0 63)) (ite _substvar_210_ (= _substvar_126_ (_ bv0 63)) (= _substvar_126_ (concat ((_ extract 61 0) _substvar_120_) (_ bv0 1)))) (= _substvar_108_ (concat ((_ extract 61 0) _substvar_126_) (bvxor ((_ extract 62 62) _substvar_126_) ((_ extract 61 61) _substvar_126_)))) (= _substvar_113_ (concat ((_ extract 61 0) _substvar_108_) (_ bv0 1))) (= _substvar_123_ (concat (_ bv0 62) (bvxor (_ bv0 1) ((_ extract 61 61) _substvar_113_)))) (= _substvar_79_ (concat ((_ extract 61 0) _substvar_123_) (_ bv0 1))) true true true (= (= (_ bv0 63) _substvar_79_) false)))
(check-sat)
(exit)
